(set-logic QF_BV)
(declare-fun _substvar_216_ () (_ BitVec 63))
(declare-fun _substvar_238_ () (_ BitVec 63))
(declare-fun _substvar_248_ () (_ BitVec 63))
(declare-fun _substvar_304_ () Bool)
(declare-fun _substvar_186_ () (_ BitVec 63))
(assert (and true true true true true true true true true true true true true true true true true true true true true true true true true true true true true true true true true true true true true true true true true true true true true true true true true true true true true true true true true true true true true true true true true true true true true true true true true true true true true true true true true true true true true true true true true true true true true true true true true true true true true true true true true true true true true true true true true true true true true true true true true true true true (= _substvar_186_ (_ bv0 63)) (ite _substvar_304_ (= _substvar_238_ (_ bv0 63)) (= _substvar_238_ (concat (_ bv0 62) (bvxor (_ bv0 1) ((_ extract 61 61) _substvar_186_))))) (= _substvar_248_ (concat ((_ extract 61 0) _substvar_238_) (bvxor ((_ extract 62 62) _substvar_238_) ((_ extract 61 61) _substvar_238_)))) (= _substvar_216_ (concat ((_ extract 61 0) _substvar_248_) (_ bv0 1))) true true true true true true true true true true true true true true true true true true true true true true true true true true true true true true true true true true true true true true true true true true true true true true true true true true true true true true true true true true true true true true true true true true true true true true true true true true true true true true true true true true true true true true true true true true true true true true true true true true true true true true true true true true true true true true true true true true true true true true true true true true true true true true true true true true true true true true true true true true (= (or false false false (= _substvar_216_ (_ bv0 63)) false false) false)))
(check-sat)
(exit)
